19 20
4 6 2
4 3 1
5 10 1
8 6 1
10 4 1
9 8 1
8 7 1
2 5 1
9 6 1
3 9 1
9 7 1
5 5 1
4 1 1
2 9 1
7 4 1
1 4 1
10 2 1
3 4 1
3 8 1
30 30 
30 30 
30 30 
30 30 
30 30 
30 30 
30 30 
30 30 
30 30 
30 30 
30 30 
30 30 
30 30 
30 30 
30 30 
30 30 
30 30 
30 30 
30 30 
30 30 
